src/swarm_exploration/utils/lkh_mtsp_solver/resource/amtsp3_2.atsp
NAME : pairopt
TYPE : ACVRP
DIMENSION : 7
EDGE_WEIGHT_TYPE : EXPLICIT
EDGE_WEIGHT_FORMAT : FULL_MATRIX
CAPACITY : 27562
VEHICLES : 2
EDGE_WEIGHT_SECTION
100000 -100000 -100000 100000 100000 100000 100000 
100000 100000 1000000 1993 1571 4218 3677 
100000 1000000 100000 1569 -107 4335 4215 
0 0 0 100000 350 5040 4875 
0 0 0 350 100000 4875 4772 
0 0 0 5040 4875 100000 350 
0 0 0 4875 4772 350 100000 
DEMAND_SECTION
1 0
2 0
3 0
4 9187
5 9187
6 9187
7 9187
DEPOT_SECTION
1
EOF