src/swarm_exploration/utils/lkh_mtsp_solver/resource/amtsp3_2.tour
NAME : pairopt.-195730.tour
COMMENT : Length = -195730
COMMENT : Found by LKH-3 [Keld Helsgaun] Thu Jul 24 17:41:28 2025
TYPE : TOUR
DIMENSION : 8
TOUR_SECTION
1
3
5
4
8
2
7
6
-1
EOF
